 C 
 1.0000000000000000
     8.3999999999999986    0.0000000000000000    0.0000000000000000
     0.0000000000000000   20.0000000000000000    0.0000000000000000
     0.0000000000000000    0.0000000000000000    4.8497422611928558
  16
Cartesian
  0.0000000000000000 10.0000000000000000  0.0000000000000000
  0.7000000000000000 10.0000000000000000  1.2124355652982139
  0.0000000000000000 10.0000000000000000  2.4248711305964279
  0.7000000000000000 10.0000000000000000  3.6373066958946425
  6.2999999999999989 10.0000000000000000  1.2124355652982139
  6.9999999999999991 10.0000000000000000  2.4248711305964279
  6.2999999999999989 10.0000000000000000  3.6373066958946425
  6.9999999999999991 10.0000000000000000  0.0000000000000000
  4.1999999999999993 10.0000000000000000  0.0000000000000000
  4.8999999999999995 10.0000000000000000  1.2124355652982139
  4.1999999999999993 10.0000000000000000  2.4248711305964279
  4.8999999999999995 10.0000000000000000  3.6373066958946425
  2.0999999999999996 10.0000000000000000  1.2124355652982139
  2.7999999999999998 10.0000000000000000  2.4248711305964279
  2.0999999999999996 10.0000000000000000  3.6373066958946425
  2.7999999999999998 10.0000000000000000  0.0000000000000000
